c 
c G(k,n,p) graph
c graph gen seed     : 8282
c number of vertices : 60
c max number of edges: 900
c number of classes  : 2
c edge density       : 0.100000
c edge probability   : 0.200000
c data structure     : sparse
c
c           Graph Stats
c number of vertices  : 60
c nonisolated vertices: 60
c number of edges     : 182
c edge density        : 0.102825
c max degree          : 13
c avg degree          : 6.07
c min degree          : 2
p col 60 182
e 1 52
e 1 34
e 1 15
e 2 53
e 2 51
e 2 34
e 2 15
e 3 57
e 3 52
e 3 51
e 3 46
e 3 35
e 3 34
e 4 57
e 4 47
e 4 44
e 4 41
e 4 25
e 4 21
e 5 58
e 5 53
e 5 50
e 5 46
e 5 41
e 5 39
e 5 29
e 5 25
e 6 58
e 6 46
e 6 39
e 6 34
e 6 30
e 6 29
e 7 51
e 7 47
e 7 46
e 7 41
e 7 30
e 7 25
e 7 22
e 7 15
e 8 58
e 8 53
e 8 47
e 8 30
e 8 25
e 9 49
e 9 41
e 10 52
e 10 50
e 10 29
e 10 25
e 10 15
e 11 58
e 11 47
e 11 29
e 12 55
e 12 38
e 12 26
e 12 18
e 12 13
e 13 58
e 13 41
e 13 39
e 13 34
e 14 57
e 14 50
e 14 49
e 14 46
e 14 39
e 14 21
e 15 56
e 15 38
e 15 28
e 15 23
e 15 16
e 16 35
e 16 22
e 17 46
e 17 41
e 17 39
e 17 34
e 17 30
e 17 29
e 18 53
e 18 44
e 18 41
e 18 39
e 19 57
e 19 52
e 19 50
e 19 44
e 19 39
e 20 59
e 20 56
e 20 55
e 20 43
e 21 48
e 22 54
e 22 42
e 22 40
e 22 37
e 22 36
e 22 32
e 22 27
e 23 51
e 23 44
e 23 35
e 23 29
e 24 53
e 24 51
e 24 46
e 24 34
e 24 25
e 25 55
e 25 40
e 25 38
e 25 37
e 25 28
e 25 26
e 26 53
e 26 52
e 27 49
e 27 29
e 28 50
e 28 46
e 29 55
e 29 42
e 30 60
e 30 59
e 30 56
e 30 54
e 30 45
e 30 40
e 30 37
e 30 36
e 30 33
e 31 49
e 31 39
e 32 52
e 33 39
e 34 59
e 34 45
e 34 37
e 35 56
e 35 55
e 36 58
e 36 52
e 36 41
e 36 39
e 37 53
e 37 49
e 38 57
e 38 52
e 38 51
e 38 47
e 39 60
e 39 55
e 40 46
e 40 44
e 41 59
e 41 45
e 42 51
e 42 50
e 42 47
e 43 52
e 43 51
e 43 49
e 43 46
e 44 55
e 44 45
e 45 58
e 45 53
e 45 52
e 46 55
e 47 54
e 48 50
e 51 60
e 52 54
e 53 54
e 55 57
e 57 59
